\* PC3 *\
Minimize
OBJ: AI__IO3200 + AI__IO3220 + AI__IO3230 + AI__IO3500 + 3 AI__IO3510
 + AI__IO3520 + AI__IO3530 + 3 AI__IO3540 + 3 AI__IO3545 + DO24__IO3100
 + DO24__IO3400 + DO24__IO3420 + DO24__IO3500 + 3 DO24__IO3510
 + 3 DO24__IO3540 + 3 DO24__IO3545 + PCA_IO3000 + PCA_IO3010 + PCA_IO3020
 + PCA_IO3030 + PCA_IO3040 + PCA_IO3100 + PCA_IO3130 + PCA_IO3200 + PCA_IO3210
 + PCA_IO3220 + PCA_IO3230 + PCA_IO3300 + PCA_IO3310 + PCA_IO3400 + PCA_IO3410
 + PCA_IO3420 + PCA_IO3500 + 3 PCA_IO3510 + PCA_IO3520 + PCA_IO3530
 + 3 PCA_IO3540 + 3 PCA_IO3545 + 3 PCA_IO3550
Subject To
_C1: 16 PCA_IO3000 + 16 PCA_IO3040 + 8 PCA_IO3400 + 8 PCA_IO3420
 + 4 PCA_IO3500 + 24 PCA_IO3510 + 24 PCA_IO3540 + 24 PCA_IO3545 >= 24
_C10: 12 PCA_IO3130 + 8 PCA_IO3410 >= 0
_C11: 14 AI__IO3200 + 8 AI__IO3220 + 8 AI__IO3230 + 4 AI__IO3500
 + 8 AI__IO3510 + 4 AI__IO3520 + 6 AI__IO3530 + 8 AI__IO3540 + 8 AI__IO3545
 >= 6
_dummy: __dummy = 0
_C12: __dummy >= 0
_C13: 14 PCA_IO3200 + 8 PCA_IO3210 + 8 PCA_IO3220 + 8 PCA_IO3230
 + 4 PCA_IO3500 + 8 PCA_IO3510 + 4 PCA_IO3520 + 6 PCA_IO3530 + 8 PCA_IO3540
 + 8 PCA_IO3545 + 7 PCA_IO3550 >= 6
_C14: 4 PCA_IO3300 + 8 PCA_IO3310 + 2 PCA_IO3510 + 4 PCA_IO3520 + 2 PCA_IO3530
 + 2 PCA_IO3540 + 2 PCA_IO3545 + 5 PCA_IO3550 >= 0
_C2: 8 PCA_IO3030 >= 0
_C3: 8 PCA_IO3100 + 8 PCA_IO3400 + 8 PCA_IO3420 + 4 PCA_IO3500 + 10 PCA_IO3510
 + 18 PCA_IO3540 + 18 PCA_IO3545 >= 16
_C4: 8 DO24__IO3100 + 8 DO24__IO3400 + 8 DO24__IO3420 + 4 DO24__IO3500
 + 10 DO24__IO3510 + 18 DO24__IO3540 + 18 DO24__IO3545 >= 16
_C5: 10 PCA_IO3550 >= 0
_C6: __dummy >= 0
_C7: 6 PCA_IO3550 >= 0
_C8: 16 PCA_IO3010 + 8 PCA_IO3410 >= 0
_C9: 8 PCA_IO3020 >= 0
Bounds
0 <= AI__IO3200
0 <= AI__IO3220
0 <= AI__IO3230
0 <= AI__IO3500
0 <= AI__IO3510
0 <= AI__IO3520
0 <= AI__IO3530
0 <= AI__IO3540
0 <= AI__IO3545
0 <= DO24__IO3100
0 <= DO24__IO3400
0 <= DO24__IO3420
0 <= DO24__IO3500
0 <= DO24__IO3510
0 <= DO24__IO3540
0 <= DO24__IO3545
0 <= PCA_IO3000
0 <= PCA_IO3010
0 <= PCA_IO3020
0 <= PCA_IO3030
0 <= PCA_IO3040
0 <= PCA_IO3100
0 <= PCA_IO3130
0 <= PCA_IO3200
0 <= PCA_IO3210
0 <= PCA_IO3220
0 <= PCA_IO3230
0 <= PCA_IO3300
0 <= PCA_IO3310
0 <= PCA_IO3400
0 <= PCA_IO3410
0 <= PCA_IO3420
0 <= PCA_IO3500
0 <= PCA_IO3510
0 <= PCA_IO3520
0 <= PCA_IO3530
0 <= PCA_IO3540
0 <= PCA_IO3545
0 <= PCA_IO3550
__dummy = 0
Generals
AI__IO3200
AI__IO3220
AI__IO3230
AI__IO3500
AI__IO3510
AI__IO3520
AI__IO3530
AI__IO3540
AI__IO3545
DO24__IO3100
DO24__IO3400
DO24__IO3420
DO24__IO3500
DO24__IO3510
DO24__IO3540
DO24__IO3545
PCA_IO3000
PCA_IO3010
PCA_IO3020
PCA_IO3030
PCA_IO3040
PCA_IO3100
PCA_IO3130
PCA_IO3200
PCA_IO3210
PCA_IO3220
PCA_IO3230
PCA_IO3300
PCA_IO3310
PCA_IO3400
PCA_IO3410
PCA_IO3420
PCA_IO3500
PCA_IO3510
PCA_IO3520
PCA_IO3530
PCA_IO3540
PCA_IO3545
PCA_IO3550
End
